etc/upTests/__reps/ExplicitVarSizeWithMarker/nested2/0007.eprime.solution
language ESSENCE' 1.0
$ minion Nodes: 22
$ minion TotalTime: 0.003216
$ Savile Row TotalTime: 1.136
letting s_SetExplicitVarSizeWithMarker_tuple1 be 1
letting s_SetExplicitVarSizeWithMarker_tuple2_SetExplicitVarSizeWithMarker_tuple2 be [[1, 2, 1;int(1..3)], 
[1, 2, 1;int(1..3)], 
[1, 2, 1;int(1..3)], 
[1, 2, 1;int(1..3)], 
[1, 2, 1;int(1..3)];int(1..5)]
letting s_SetExplicitVarSizeWithMarker_tuple2_SetExplicitVarSizeWithMarker_tuple1 be [2, 2, 2, 2, 2;int(1..5)]
